50
324 621 9 983 823 1000 264 200 55 194 25 692 366 816 761 350 167 348 31 649 190 149 889 438 947 981 664 250 148 247 737 512 298 18 352 393 70 250 296 416 494 566 850 295 95 304 217 576 477 322 
243 671 69 1008 864 1071 171 137 74 234 64 693 327 765 836 447 167 341 17 669 132 174 844 431 1020 943 671 214 145 321 735 605 279 54 381 393 115 208 198 400 406 515 870 333 178 340 228 545 472 279 
10454
